(set-logic HORN)
(declare-fun inv ((_ BitVec 32) (_ BitVec 32) ) Bool)
(assert (forall ((x (_ BitVec 32)) (y (_ BitVec 32))) 
       (=> ( = x ( bvadd (_ bv1 32) ( bvnot (_ bv50 32) ) ) ) (inv x y))))
(assert (forall ((x (_ BitVec 32)) (y (_ BitVec 32)) (x! (_ BitVec 32)) (y! (_ BitVec 32))) 
       (=> (and (inv x y) ( and ( bvult x (_ bv0 32) ) ( = x! ( bvadd x y ) ) ( = y! ( bvadd y (_ bv1 32) ) ) )) (inv x! y!))))
(assert (forall ((x (_ BitVec 32)) (y (_ BitVec 32))) 
       (=> (inv x y) ( not ( and ( bvuge x (_ bv0 32) ) ( bvule y (_ bv0 32) ) ) ))))
(check-sat)
